LAMMPS data file via write_data, version 23 Jun 2022, timestep = 0

146 atoms
6 atom types

49.50739437676169 82.30565540384133 xlo xhi
49.50739437676169 82.30565540384133 ylo yhi
49.50739437676169 82.30565540384133 zlo zhi

Masses

1 58.933194 # Co
2 51.9961 # Cr
3 63.546 # Cu
4 55.845 # Fe
5 58.6934 # Ni
6 50.9415 # V

Atoms # atomic

1 3 70.46794889915459 70.46794889915459 66.81880969207214 0 0 0
2 3 70.46794889915459 70.46794889915459 63.16967048498965 0 0 0
3 4 70.46794889915459 66.81880969207214 70.46794889915459 0 0 0
4 3 70.46794889915459 63.16967048498965 70.46794889915459 0 0 0
5 4 70.46794889915459 68.64337929561337 68.64337929561337 0 0 0
6 5 72.29251850269583 68.64337929561337 66.81880969207214 0 0 0
7 6 72.29251850269583 66.81880969207214 68.64337929561337 0 0 0
8 6 70.46794889915459 66.81880969207214 66.81880969207214 0 0 0
9 4 70.46794889915459 64.99424008853089 68.64337929561337 0 0 0
10 5 72.29251850269583 64.99424008853089 66.81880969207214 0 0 0
11 3 70.46794889915459 63.16967048498965 66.81880969207214 0 0 0
12 4 70.46794889915459 61.34510088144842 68.64337929561337 0 0 0
13 4 70.46794889915459 68.64337929561337 64.99424008853089 0 0 0
14 3 72.29251850269583 66.81880969207214 64.99424008853089 0 0 0
15 6 70.46794889915459 66.81880969207214 63.16967048498965 0 0 0
16 4 70.46794889915459 64.99424008853089 64.99424008853089 0 0 0
17 5 72.29251850269583 64.99424008853089 63.16967048498965 0 0 0
18 6 72.29251850269583 63.16967048498965 64.99424008853089 0 0 0
19 3 70.46794889915459 63.16967048498965 63.16967048498965 0 0 0
20 4 70.46794889915459 61.34510088144842 64.99424008853089 0 0 0
21 4 70.46794889915459 68.64337929561337 61.34510088144842 0 0 0
22 4 70.46794889915459 64.99424008853089 61.34510088144842 0 0 0
23 4 66.81880969207214 70.46794889915459 70.46794889915459 0 0 0
24 4 63.16967048498965 70.46794889915459 70.46794889915459 0 0 0
25 4 66.81880969207214 72.29251850269583 68.64337929561337 0 0 0
26 5 68.64337929561337 72.29251850269583 66.81880969207214 0 0 0
27 6 68.64337929561337 70.46794889915459 68.64337929561337 0 0 0
28 5 66.81880969207214 70.46794889915459 66.81880969207214 0 0 0
29 5 64.99424008853089 72.29251850269583 66.81880969207214 0 0 0
30 6 64.99424008853089 70.46794889915459 68.64337929561337 0 0 0
31 4 63.16967048498965 70.46794889915459 66.81880969207214 0 0 0
32 6 61.34510088144842 70.46794889915459 68.64337929561337 0 0 0
33 4 66.81880969207214 72.29251850269583 64.99424008853089 0 0 0
34 6 68.64337929561337 70.46794889915459 64.99424008853089 0 0 0
35 5 66.81880969207214 70.46794889915459 63.16967048498965 0 0 0
36 4 63.16967048498965 72.29251850269583 64.99424008853089 0 0 0
37 3 64.99424008853089 72.29251850269583 63.16967048498965 0 0 0
38 6 64.99424008853089 70.46794889915459 64.99424008853089 0 0 0
39 5 63.16967048498965 70.46794889915459 63.16967048498965 0 0 0
40 6 61.34510088144842 70.46794889915459 64.99424008853089 0 0 0
41 6 68.64337929561337 70.46794889915459 61.34510088144842 0 0 0
42 6 64.99424008853089 70.46794889915459 61.34510088144842 0 0 0
43 4 66.81880969207214 68.64337929561337 72.29251850269583 0 0 0
44 5 68.64337929561337 68.64337929561337 70.46794889915459 0 0 0
45 6 68.64337929561337 66.81880969207214 72.29251850269583 0 0 0
46 3 66.81880969207214 66.81880969207214 70.46794889915459 0 0 0
47 5 64.99424008853089 68.64337929561337 70.46794889915459 0 0 0
48 6 64.99424008853089 66.81880969207214 72.29251850269583 0 0 0
49 4 63.16967048498965 66.81880969207214 70.46794889915459 0 0 0
50 5 61.34510088144842 68.64337929561337 70.46794889915459 0 0 0
51 4 66.81880969207214 64.99424008853089 72.29251850269583 0 0 0
52 5 68.64337929561337 64.99424008853089 70.46794889915459 0 0 0
53 3 66.81880969207214 63.16967048498965 70.46794889915459 0 0 0
54 4 63.16967048498965 64.99424008853089 72.29251850269583 0 0 0
55 5 64.99424008853089 64.99424008853089 70.46794889915459 0 0 0
56 6 64.99424008853089 63.16967048498965 72.29251850269583 0 0 0
57 3 63.16967048498965 63.16967048498965 70.46794889915459 0 0 0
58 5 61.34510088144842 64.99424008853089 70.46794889915459 0 0 0
59 5 68.64337929561337 61.34510088144842 70.46794889915459 0 0 0
60 5 64.99424008853089 61.34510088144842 70.46794889915459 0 0 0
61 4 66.81880969207214 68.64337929561337 68.64337929561337 0 0 0
62 5 68.64337929561337 68.64337929561337 66.81880969207214 0 0 0
63 6 68.64337929561337 66.81880969207214 68.64337929561337 0 0 0
64 3 66.81880969207214 66.81880969207214 66.81880969207214 0 0 0
65 4 63.16967048498965 68.64337929561337 68.64337929561337 0 0 0
66 5 64.99424008853089 68.64337929561337 66.81880969207214 0 0 0
67 6 64.99424008853089 66.81880969207214 68.64337929561337 0 0 0
68 6 63.16967048498965 66.81880969207214 66.81880969207214 0 0 0
69 4 59.52053127790718 68.64337929561337 68.64337929561337 0 0 0
70 5 61.34510088144842 68.64337929561337 66.81880969207214 0 0 0
71 6 61.34510088144842 66.81880969207214 68.64337929561337 0 0 0
72 3 59.52053127790718 66.81880969207214 66.81880969207214 0 0 0
73 4 66.81880969207214 64.99424008853089 68.64337929561337 0 0 0
74 5 68.64337929561337 64.99424008853089 66.81880969207214 0 0 0
75 6 68.64337929561337 63.16967048498965 68.64337929561337 0 0 0
76 3 66.81880969207214 63.16967048498965 66.81880969207214 0 0 0
77 4 63.16967048498965 64.99424008853089 68.64337929561337 0 0 0
78 5 64.99424008853089 64.99424008853089 66.81880969207214 0 0 0
79 6 64.99424008853089 63.16967048498965 68.64337929561337 0 0 0
80 3 63.16967048498965 63.16967048498965 66.81880969207214 0 0 0
81 4 59.52053127790718 64.99424008853089 68.64337929561337 0 0 0
82 5 61.34510088144842 64.99424008853089 66.81880969207214 0 0 0
83 6 61.34510088144842 63.16967048498965 68.64337929561337 0 0 0
84 3 59.52053127790718 63.16967048498965 66.81880969207214 0 0 0
85 4 66.81880969207214 61.34510088144842 68.64337929561337 0 0 0
86 5 68.64337929561337 61.34510088144842 66.81880969207214 0 0 0
87 6 68.64337929561337 59.52053127790718 68.64337929561337 0 0 0
88 5 66.81880969207214 59.52053127790718 66.81880969207214 0 0 0
89 4 63.16967048498965 61.34510088144842 68.64337929561337 0 0 0
90 5 64.99424008853089 61.34510088144842 66.81880969207214 0 0 0
91 6 64.99424008853089 59.52053127790718 68.64337929561337 0 0 0
92 6 63.16967048498965 59.52053127790718 66.81880969207214 0 0 0
93 5 61.34510088144842 61.34510088144842 66.81880969207214 0 0 0
94 4 66.81880969207214 68.64337929561337 64.99424008853089 0 0 0
95 5 68.64337929561337 68.64337929561337 63.16967048498965 0 0 0
96 6 68.64337929561337 66.81880969207214 64.99424008853089 0 0 0
97 6 66.81880969207214 66.81880969207214 63.16967048498965 0 0 0
98 4 63.16967048498965 68.64337929561337 64.99424008853089 0 0 0
99 5 64.99424008853089 68.64337929561337 63.16967048498965 0 0 0
100 6 64.99424008853089 66.81880969207214 64.99424008853089 0 0 0
101 6 63.16967048498965 66.81880969207214 63.16967048498965 0 0 0
102 4 59.52053127790718 68.64337929561337 64.99424008853089 0 0 0
103 5 61.34510088144842 68.64337929561337 63.16967048498965 0 0 0
104 6 61.34510088144842 66.81880969207214 64.99424008853089 0 0 0
105 3 59.52053127790718 66.81880969207214 63.16967048498965 0 0 0
106 4 66.81880969207214 64.99424008853089 64.99424008853089 0 0 0
107 5 68.64337929561337 64.99424008853089 63.16967048498965 0 0 0
108 6 68.64337929561337 63.16967048498965 64.99424008853089 0 0 0
109 3 66.81880969207214 63.16967048498965 63.16967048498965 0 0 0
110 4 63.16967048498965 64.99424008853089 64.99424008853089 0 0 0
111 5 64.99424008853089 64.99424008853089 63.16967048498965 0 0 0
112 6 64.99424008853089 63.16967048498965 64.99424008853089 0 0 0
113 5 63.16967048498965 63.16967048498965 63.16967048498965 0 0 0
114 4 59.52053127790718 64.99424008853089 64.99424008853089 0 0 0
115 5 61.34510088144842 64.99424008853089 63.16967048498965 0 0 0
116 6 61.34510088144842 63.16967048498965 64.99424008853089 0 0 0
117 3 59.52053127790718 63.16967048498965 63.16967048498965 0 0 0
118 4 66.81880969207214 61.34510088144842 64.99424008853089 0 0 0
119 5 68.64337929561337 61.34510088144842 63.16967048498965 0 0 0
120 6 68.64337929561337 59.52053127790718 64.99424008853089 0 0 0
121 5 66.81880969207214 59.52053127790718 63.16967048498965 0 0 0
122 4 63.16967048498965 61.34510088144842 64.99424008853089 0 0 0
123 5 64.99424008853089 61.34510088144842 63.16967048498965 0 0 0
124 6 64.99424008853089 59.52053127790718 64.99424008853089 0 0 0
125 3 63.16967048498965 59.52053127790718 63.16967048498965 0 0 0
126 5 61.34510088144842 61.34510088144842 63.16967048498965 0 0 0
127 4 66.81880969207214 68.64337929561337 61.34510088144842 0 0 0
128 5 68.64337929561337 68.64337929561337 59.52053127790718 0 0 0
129 6 68.64337929561337 66.81880969207214 61.34510088144842 0 0 0
130 6 66.81880969207214 66.81880969207214 59.52053127790718 0 0 0
131 4 63.16967048498965 68.64337929561337 61.34510088144842 0 0 0
132 5 64.99424008853089 68.64337929561337 59.52053127790718 0 0 0
133 6 64.99424008853089 66.81880969207214 61.34510088144842 0 0 0
134 3 63.16967048498965 66.81880969207214 59.52053127790718 0 0 0
135 6 61.34510088144842 66.81880969207214 61.34510088144842 0 0 0
136 4 66.81880969207214 64.99424008853089 61.34510088144842 0 0 0
137 5 68.64337929561337 64.99424008853089 59.52053127790718 0 0 0
138 6 68.64337929561337 63.16967048498965 61.34510088144842 0 0 0
139 5 66.81880969207214 63.16967048498965 59.52053127790718 0 0 0
140 4 63.16967048498965 64.99424008853089 61.34510088144842 0 0 0
141 5 64.99424008853089 64.99424008853089 59.52053127790718 0 0 0
142 6 64.99424008853089 63.16967048498965 61.34510088144842 0 0 0
143 5 63.16967048498965 63.16967048498965 59.52053127790718 0 0 0
144 6 61.34510088144842 63.16967048498965 61.34510088144842 0 0 0
145 4 66.81880969207214 61.34510088144842 61.34510088144842 0 0 0
146 4 63.16967048498965 61.34510088144842 61.34510088144842 0 0 0

Velocities

1 0 0 0
2 0 0 0
3 0 0 0
4 0 0 0
5 0 0 0
6 0 0 0
7 0 0 0
8 0 0 0
9 0 0 0
10 0 0 0
11 0 0 0
12 0 0 0
13 0 0 0
14 0 0 0
15 0 0 0
16 0 0 0
17 0 0 0
18 0 0 0
19 0 0 0
20 0 0 0
21 0 0 0
22 0 0 0
23 0 0 0
24 0 0 0
25 0 0 0
26 0 0 0
27 0 0 0
28 0 0 0
29 0 0 0
30 0 0 0
31 0 0 0
32 0 0 0
33 0 0 0
34 0 0 0
35 0 0 0
36 0 0 0
37 0 0 0
38 0 0 0
39 0 0 0
40 0 0 0
41 0 0 0
42 0 0 0
43 0 0 0
44 0 0 0
45 0 0 0
46 0 0 0
47 0 0 0
48 0 0 0
49 0 0 0
50 0 0 0
51 0 0 0
52 0 0 0
53 0 0 0
54 0 0 0
55 0 0 0
56 0 0 0
57 0 0 0
58 0 0 0
59 0 0 0
60 0 0 0
61 0 0 0
62 0 0 0
63 0 0 0
64 0 0 0
65 0 0 0
66 0 0 0
67 0 0 0
68 0 0 0
69 0 0 0
70 0 0 0
71 0 0 0
72 0 0 0
73 0 0 0
74 0 0 0
75 0 0 0
76 0 0 0
77 0 0 0
78 0 0 0
79 0 0 0
80 0 0 0
81 0 0 0
82 0 0 0
83 0 0 0
84 0 0 0
85 0 0 0
86 0 0 0
87 0 0 0
88 0 0 0
89 0 0 0
90 0 0 0
91 0 0 0
92 0 0 0
93 0 0 0
94 0 0 0
95 0 0 0
96 0 0 0
97 0 0 0
98 0 0 0
99 0 0 0
100 0 0 0
101 0 0 0
102 0 0 0
103 0 0 0
104 0 0 0
105 0 0 0
106 0 0 0
107 0 0 0
108 0 0 0
109 0 0 0
110 0 0 0
111 0 0 0
112 0 0 0
113 0 0 0
114 0 0 0
115 0 0 0
116 0 0 0
117 0 0 0
118 0 0 0
119 0 0 0
120 0 0 0
121 0 0 0
122 0 0 0
123 0 0 0
124 0 0 0
125 0 0 0
126 0 0 0
127 0 0 0
128 0 0 0
129 0 0 0
130 0 0 0
131 0 0 0
132 0 0 0
133 0 0 0
134 0 0 0
135 0 0 0
136 0 0 0
137 0 0 0
138 0 0 0
139 0 0 0
140 0 0 0
141 0 0 0
142 0 0 0
143 0 0 0
144 0 0 0
145 0 0 0
146 0 0 0
